StudentsNr = 10;
InstructorsNr = 84;
DaysNr = 1;
SlotsPerDay = 10;
AvailabilitySlotsLenght = 1;
RoomNr = 2;
ProgrammNr = 2;
DegreeNr = 2;
RolesNr = 0;
CoursesNr = 6;
InstructorsProgramm = [{1}, {2}, {2}, {1}, {2}, {1, 2}, {1, 2}, {1}, {1, 2}, {2}, {1}, {1, 2}, {2}, {2}, {2}, {1}, {1, 2}, {1, 2}, {2}, {1, 2}, {2}, {1}, {1, 2}, {2}, {2}, {1}, {1}, {2}, {2}, {1, 2}, {1, 2}, {1, 2}, {1}, {1, 2}, {2}, {2}, {1, 2}, {1}, {1, 2}, {1}, {2}, {1, 2}, {1}, {1}, {1}, {2}, {1}, {1, 2}, {1, 2}, {1}, {1}, {2}, {2}, {2}, {2}, {1, 2}, {2}, {1}, {1, 2}, {1}, {1}, {2}, {2}, {2}, {1}, {2}, {1}, {2}, {2}, {1}, {1}, {1, 2}, {1, 2}, {1}, {1}, {1}, {1, 2}, {1}, {1, 2}, {2}, {2}, {1, 2}, {2}, {1}];
InstructorRolesPerProgramm = array2d(1..ProgrammNr,{},[]);
InstructorsAvailability = [|1, 1, 1, 0, 1, 1, 0, 1, 1, 1, |1, 1, 1, 1, 1, 1, 1, 1, 1, 1, |1, 1, 1, 1, 1, 0, 1, 1, 0, 1, |1, 1, 1, 0, 1, 0, 0, 0, 0, 0, |0, 1, 1, 1, 1, 1, 1, 0, 0, 1, |1, 1, 1, 1, 1, 1, 1, 1, 1, 0, |0, 1, 1, 1, 1, 0, 1, 1, 1, 1, |1, 1, 1, 0, 0, 0, 1, 1, 1, 1, |0, 1, 1, 0, 1, 1, 1, 1, 1, 1, |1, 1, 0, 1, 1, 1, 1, 1, 0, 1, |0, 0, 1, 1, 1, 1, 1, 1, 1, 1, |1, 1, 1, 1, 0, 1, 1, 1, 1, 1, |0, 0, 1, 1, 1, 1, 1, 1, 1, 1, |0, 0, 1, 1, 1, 1, 1, 1, 1, 1, |1, 1, 1, 1, 1, 1, 1, 1, 1, 1, |0, 1, 0, 1, 1, 1, 1, 1, 1, 1, |1, 1, 1, 1, 1, 1, 1, 0, 1, 1, |1, 1, 1, 0, 1, 1, 1, 1, 1, 1, |1, 0, 0, 1, 1, 1, 1, 1, 1, 1, |0, 1, 1, 1, 1, 1, 1, 1, 1, 1, |1, 1, 0, 0, 0, 0, 1, 1, 1, 1, |0, 0, 0, 1, 1, 1, 1, 1, 1, 1, |0, 1, 1, 1, 0, 1, 1, 0, 1, 1, |0, 0, 1, 1, 1, 0, 0, 1, 1, 1, |0, 0, 0, 0, 0, 0, 1, 1, 0, 1, |1, 1, 1, 1, 1, 1, 0, 1, 1, 0, |0, 0, 1, 1, 1, 1, 0, 1, 0, 0, |0, 1, 1, 1, 1, 1, 1, 1, 1, 1, |0, 1, 1, 1, 0, 0, 1, 1, 1, 1, |0, 1, 1, 1, 1, 1, 1, 1, 1, 1, |1, 1, 1, 0, 1, 1, 1, 1, 1, 1, |1, 1, 1, 0, 1, 1, 0, 0, 1, 1, |1, 1, 1, 0, 1, 1, 1, 1, 1, 1, |1, 1, 1, 1, 1, 1, 1, 1, 1, 1, |1, 1, 1, 1, 1, 1, 1, 1, 1, 1, |1, 1, 1, 0, 1, 1, 1, 1, 0, 0, |0, 0, 0, 1, 1, 1, 1, 1, 1, 1, |1, 1, 1, 1, 1, 1, 1, 1, 1, 1, |1, 0, 1, 1, 1, 1, 1, 1, 1, 1, |1, 0, 1, 1, 1, 1, 1, 1, 1, 1, |0, 1, 1, 1, 1, 1, 1, 1, 1, 1, |1, 1, 1, 1, 1, 1, 1, 1, 1, 1, |0, 1, 1, 1, 1, 1, 1, 1, 0, 1, |1, 1, 0, 0, 1, 1, 0, 1, 0, 1, |1, 1, 1, 1, 1, 1, 0, 0, 1, 1, |1, 1, 1, 1, 1, 1, 1, 0, 0, 0, |1, 1, 1, 1, 1, 1, 1, 0, 1, 1, |0, 1, 1, 1, 1, 1, 1, 1, 1, 1, |0, 1, 1, 1, 1, 1, 1, 1, 1, 1, |0, 1, 1, 1, 1, 1, 1, 1, 1, 1, |1, 1, 0, 0, 1, 1, 1, 1, 1, 1, |1, 1, 1, 0, 1, 1, 1, 0, 0, 0, |1, 1, 1, 1, 1, 1, 1, 1, 1, 1, |0, 1, 1, 1, 1, 1, 0, 1, 1, 1, |0, 0, 1, 1, 1, 1, 1, 1, 1, 1, |0, 1, 0, 0, 0, 0, 0, 1, 1, 1, |1, 0, 1, 1, 1, 1, 1, 1, 1, 1, |1, 1, 0, 0, 0, 1, 1, 1, 0, 0, |1, 1, 1, 1, 1, 1, 1, 1, 0, 1, |1, 1, 1, 0, 1, 1, 1, 1, 1, 0, |0, 0, 1, 1, 1, 1, 1, 1, 1, 0, |0, 1, 1, 1, 1, 1, 1, 1, 1, 1, |0, 1, 1, 0, 0, 0, 1, 0, 0, 0, |0, 0, 1, 1, 1, 1, 1, 1, 1, 1, |0, 1, 1, 1, 1, 0, 1, 1, 1, 1, |1, 1, 1, 1, 1, 1, 0, 0, 0, 1, |0, 0, 0, 0, 0, 1, 1, 1, 1, 0, |1, 1, 1, 1, 1, 1, 1, 1, 1, 1, |0, 0, 1, 1, 1, 1, 1, 1, 1, 1, |0, 1, 1, 1, 0, 1, 1, 1, 1, 1, |0, 1, 1, 1, 1, 1, 1, 1, 1, 1, |1, 1, 0, 0, 0, 1, 1, 1, 0, 1, |0, 1, 1, 1, 1, 1, 1, 1, 1, 1, |1, 1, 0, 0, 1, 1, 1, 1, 1, 1, |1, 1, 1, 1, 1, 0, 0, 1, 1, 1, |1, 1, 1, 1, 1, 1, 1, 1, 1, 1, |1, 1, 0, 1, 1, 1, 1, 1, 1, 1, |0, 1, 1, 1, 1, 1, 1, 1, 1, 1, |1, 1, 0, 1, 1, 1, 1, 1, 1, 1, |1, 1, 1, 1, 1, 1, 1, 0, 1, 1, |0, 1, 1, 1, 1, 1, 1, 1, 1, 1, |0, 0, 1, 0, 1, 1, 1, 1, 1, 1, |1, 1, 1, 1, 1, 0, 1, 1, 1, 0, |1, 1, 1, 1, 1, 1, 1, 1, 1, 1|];
StudentsProgramm = [1, 1, 2, 2, 2, 1, 1, 1, 2, 2];
StudentsDegree = [1, 1, 1, 1, 1, 2, 2, 2, 2, 1];
StudentsSupervisorId = [6, 59, 69, 17, 5, 31, 79, 26, 63, 81];
StudentsCourseIds = [{}, {}, {}, {}, {}, {5, 6}, {1, 2}, {2, 4}, {1, 2}, {}];
StudentsAvailability = [|1, 1, 1, 0, 0, 1, 1, 1, 1, 1, |0, 1, 1, 1, 0, 1, 1, 1, 1, 1, |1, 1, 1, 1, 1, 1, 1, 0, 1, 1, |0, 0, 0, 0, 0, 0, 1, 1, 1, 0, |0, 1, 1, 1, 1, 1, 1, 1, 1, 1, |1, 1, 1, 1, 1, 1, 1, 1, 1, 1, |1, 1, 1, 0, 0, 1, 1, 1, 1, 1, |1, 1, 1, 1, 1, 1, 1, 1, 1, 1, |1, 1, 1, 1, 1, 1, 1, 1, 0, 0, |0, 0, 0, 1, 1, 1, 1, 1, 1, 1|];
TheoryticalMinCard = [1, 1, 1, 1, 1, 3, 3, 3, 2, 1];
CoursesInstructorIds = [{3, 4, 6, 7, 8, 11, 12, 13, 15, 16, 17, 19, 20, 21, 22, 23, 24, 26, 27, 28, 30, 31, 32, 36, 37, 40, 41, 42, 43, 44, 48, 53, 55, 56, 58, 59, 62, 63, 64, 65, 67, 68, 71, 72, 73, 74, 75, 77, 80, 81, 83, 84}, {2, 7, 14, 18, 22, 24, 28, 29, 32, 39, 41, 43, 47, 56, 62, 63, 71, 72, 74}, {1, 3, 4, 6, 7, 10, 11, 12, 13, 14, 17, 20, 22, 23, 25, 26, 27, 29, 30, 32, 33, 34, 35, 38, 40, 42, 45, 48, 49, 51, 52, 55, 57, 58, 61, 62, 63, 66, 67, 68, 71, 72, 73, 74, 78, 79, 80, 81, 84}, {10, 46, 66}, {1, 3, 5, 6, 8, 13, 14, 15, 17, 18, 20, 21, 22, 24, 25, 29, 30, 32, 33, 34, 35, 37, 40, 42, 46, 50, 52, 53, 56, 57, 58, 59, 64, 66, 69, 70, 74, 76, 77, 78, 80, 82, 84}, {2, 6, 7, 12, 14, 15, 16, 17, 24, 30, 32, 41, 44, 45, 47, 48, 51, 58, 64, 67, 70, 72, 78, 81, 84}];
RolesDemands = [];
RolesContinuity = [];
ExamLen = [2, 2, 2, 2, 2, 1, 1, 1, 1, 2];
LunchTsMinLen = 1;
LunchStarts = [3..7];
SupervisorAvailable = 5;
OptimalLunchLenght = [1, 1];
OptimalStartTs = [0, 0];
OptimalFinishTs = [0, 10];
MinimizeRooms = 100;
RolesSoftContinuity = array2d(1..2,{},[]);
SameDegreeInRoom = 10;
Mergeability = 1;
